344
Properties=species:S:1:pos:R:3:energies:R:1:forces:R:3 energy=70.08543652573945 free_energy=70.08543652573945 pbc="F F F"
Pd     -13.17335795       0.00000000       0.00000000       0.79488649       0.03099967      -0.00000000      -0.00000000
Pd     -11.43271194      -1.92141972      -0.00000000       0.45793796       0.00357827       0.01688814      -0.00000000
Pd     -11.43271194      -0.00000000      -1.92141972       0.45793796       0.00357827       0.00000000       0.01688814
Pd     -11.43271194       0.00000000       1.92141972       0.45793796       0.00357827      -0.00000000      -0.01688814
Pd     -11.43271194       1.92141972       0.00000000       0.45793796       0.00357827      -0.01688814      -0.00000000
Pd      -9.55463148      -3.83749820      -0.00000000       0.45463030       0.00213006       0.00234056      -0.00000000
Pd      -7.66065833      -5.75317069       0.00000000       0.45457664       0.00382015       0.00938142      -0.00000000
Pd      -7.70263973      -3.87669245      -1.94209324       0.26404373       0.00144660      -0.00669210       0.00005271
Pd      -7.70263973      -3.87669245       1.94209324       0.26404373       0.00144660      -0.00669210      -0.00005271
Pd      -9.55463148      -0.00000000      -3.83749820       0.45463030       0.00213006       0.00000000       0.00234056
Pd      -7.70263973      -1.94209324      -3.87669245       0.26404373       0.00144660       0.00005271      -0.00669210
Pd      -7.66065833      -0.00000000      -5.75317069       0.45457664       0.00382015       0.00000000       0.00938142
Pd      -9.59615005      -1.94986788      -1.94986788       0.26553197      -0.00793621       0.00796127       0.00796127
Pd      -9.58608897       0.00000000       0.00000000       0.02342423      -0.02833538       0.00000000       0.00000000
Pd      -7.70173745      -1.94664976       0.00000000       0.01123474      -0.00228198      -0.00821402       0.00000000
Pd      -7.70173745       0.00000000      -1.94664976       0.01123474      -0.00228198      -0.00000000      -0.00821402
Pd      -9.59615005      -1.94986788       1.94986788       0.26553197      -0.00793621       0.00796127      -0.00796127
Pd      -9.55463148       0.00000000       3.83749820       0.45463030       0.00213006       0.00000000      -0.00234056
Pd      -7.70263973      -1.94209324       3.87669245       0.26404373       0.00144660       0.00005271       0.00669210
Pd      -7.70173745       0.00000000       1.94664976       0.01123474      -0.00228198       0.00000000       0.00821402
Pd      -7.66065833      -0.00000000       5.75317069       0.45457664       0.00382015      -0.00000000      -0.00938142
Pd      -7.70263973       1.94209324      -3.87669245       0.26404373       0.00144660      -0.00005271      -0.00669210
Pd      -9.59615005       1.94986788      -1.94986788       0.26553197      -0.00793621      -0.00796127       0.00796127
Pd      -9.55463148       3.83749820       0.00000000       0.45463030       0.00213006      -0.00234056      -0.00000000
Pd      -7.70173745       1.94664976      -0.00000000       0.01123474      -0.00228198       0.00821402      -0.00000000
Pd      -7.70263973       3.87669245      -1.94209324       0.26404373       0.00144660       0.00669210       0.00005271
Pd      -9.59615005       1.94986788       1.94986788       0.26553197      -0.00793621      -0.00796127      -0.00796127
Pd      -7.70263973       1.94209324       3.87669245       0.26404373       0.00144660      -0.00005271       0.00669210
Pd      -7.70263973       3.87669245       1.94209324       0.26404373       0.00144660       0.00669210      -0.00005271
Pd      -7.66065833       5.75317069       0.00000000       0.45457664       0.00382015      -0.00938142       0.00000000
Pd      -5.75317069      -7.66065833      -0.00000000       0.45457664       0.00938142       0.00382015       0.00000000
Pd      -3.83749820      -9.55463148      -0.00000000       0.45463030       0.00234056       0.00213006       0.00000000
Pd      -3.87669245      -7.70263973      -1.94209324       0.26404373      -0.00669210       0.00144660       0.00005271
Pd      -3.87669245      -7.70263973       1.94209324       0.26404373      -0.00669210       0.00144660      -0.00005271
Pd      -5.79165145      -3.87142802      -3.87142802       0.26257745       0.00152856      -0.00731273      -0.00731273
Pd      -3.87142802      -5.79165145      -3.87142802       0.26257745      -0.00731273       0.00152856      -0.00731273
Pd      -3.87142802      -3.87142802      -5.79165145       0.26257745      -0.00731273      -0.00731273       0.00152856
Pd      -5.79418356      -5.79418356      -1.94072440       0.26356177      -0.00408106      -0.00408106      -0.00343563
Pd      -5.79320904      -3.87569492       0.00000000       0.01198044      -0.01281086       0.00629074       0.00000000
Pd      -3.87569492      -5.79320904      -0.00000000       0.01198044       0.00629074      -0.01281086      -0.00000000
Pd      -3.87549481      -3.87549481      -1.94517227       0.00412201      -0.00410504      -0.00410504      -0.01022359
Pd      -5.79418356      -5.79418356       1.94072440       0.26356177      -0.00408106      -0.00408106       0.00343563
Pd      -5.79165145      -3.87142802       3.87142802       0.26257745       0.00152856      -0.00731273       0.00731273
Pd      -3.87142802      -5.79165145       3.87142802       0.26257745      -0.00731273       0.00152856       0.00731273
Pd      -3.87549481      -3.87549481       1.94517227       0.00412201      -0.00410504      -0.00410504       0.01022359
Pd      -3.87142802      -3.87142802       5.79165145       0.26257745      -0.00731273      -0.00731273      -0.00152856
Pd      -5.75317069      -0.00000000      -7.66065833       0.45457664       0.00938142       0.00000000       0.00382015
Pd      -3.87669245      -1.94209324      -7.70263973       0.26404373      -0.00669210       0.00005271       0.00144660
Pd      -3.83749820      -0.00000000      -9.55463148       0.45463030       0.00234056       0.00000000       0.00213006
Pd      -5.79418356      -1.94072440      -5.79418356       0.26356177      -0.00408106      -0.00343563      -0.00408106
Pd      -5.79320904       0.00000000      -3.87569492       0.01198044      -0.01281086      -0.00000000       0.00629074
Pd      -3.87549481      -1.94517227      -3.87549481       0.00412201      -0.00410504      -0.01022359      -0.00410504
Pd      -3.87569492       0.00000000      -5.79320904       0.01198044       0.00629074      -0.00000000      -0.01281086
Pd      -5.79610209      -1.94690130      -1.94690130       0.00354213      -0.00547415      -0.00242885      -0.00242885
Pd      -5.78847230       0.00000000       0.00000000      -0.00157326       0.01534557      -0.00000000      -0.00000000
Pd      -3.86812988      -1.93765162      -0.00000000      -0.00124476       0.00979280       0.00375965       0.00000000
Pd      -3.86812988       0.00000000      -1.93765162      -0.00124476       0.00979280       0.00000000       0.00375965
Pd      -5.79610209      -1.94690130       1.94690130       0.00354213      -0.00547415      -0.00242885       0.00242885
Pd      -5.79320904      -0.00000000       3.87569492       0.01198044      -0.01281086      -0.00000000      -0.00629074
Pd      -3.87549481      -1.94517227       3.87549481       0.00412201      -0.00410504      -0.01022359       0.00410504
Pd      -3.86812988      -0.00000000       1.93765162      -0.00124476       0.00979280      -0.00000000      -0.00375965
Pd      -5.79418356      -1.94072440       5.79418356       0.26356177      -0.00408106      -0.00343563       0.00408106
Pd      -5.75317069      -0.00000000       7.66065833       0.45457664       0.00938142      -0.00000000      -0.00382015
Pd      -3.87669245      -1.94209324       7.70263973       0.26404373      -0.00669210       0.00005271      -0.00144660
Pd      -3.87569492      -0.00000000       5.79320904       0.01198044       0.00629074       0.00000000       0.01281086
Pd      -3.83749820       0.00000000       9.55463148       0.45463030       0.00234056      -0.00000000      -0.00213006
Pd      -3.87669245       1.94209324      -7.70263973       0.26404373      -0.00669210      -0.00005271       0.00144660
Pd      -5.79418356       1.94072440      -5.79418356       0.26356177      -0.00408106       0.00343563      -0.00408106
Pd      -5.79165145       3.87142802      -3.87142802       0.26257745       0.00152856       0.00731273      -0.00731273
Pd      -3.87549481       1.94517227      -3.87549481       0.00412201      -0.00410504       0.01022359      -0.00410504
Pd      -3.87142802       3.87142802      -5.79165145       0.26257745      -0.00731273       0.00731273       0.00152856
Pd      -5.79610209       1.94690130      -1.94690130       0.00354213      -0.00547415       0.00242885      -0.00242885
Pd      -5.79320904       3.87569492      -0.00000000       0.01198044      -0.01281086      -0.00629074       0.00000000
Pd      -3.86812988       1.93765162       0.00000000      -0.00124476       0.00979280      -0.00375965       0.00000000
Pd      -3.87549481       3.87549481      -1.94517227       0.00412201      -0.00410504       0.00410504      -0.01022359
Pd      -5.79610209       1.94690130       1.94690130       0.00354213      -0.00547415       0.00242885       0.00242885
Pd      -5.79165145       3.87142802       3.87142802       0.26257745       0.00152856       0.00731273       0.00731273
Pd      -3.87549481       1.94517227       3.87549481       0.00412201      -0.00410504       0.01022359       0.00410504
Pd      -3.87549481       3.87549481       1.94517227       0.00412201      -0.00410504       0.00410504       0.01022359
Pd      -5.79418356       1.94072440       5.79418356       0.26356177      -0.00408106       0.00343563       0.00408106
Pd      -3.87669245       1.94209324       7.70263973       0.26404373      -0.00669210      -0.00005271      -0.00144660
Pd      -3.87142802       3.87142802       5.79165145       0.26257745      -0.00731273       0.00731273      -0.00152856
Pd      -3.87142802       5.79165145      -3.87142802       0.26257745      -0.00731273      -0.00152856      -0.00731273
Pd      -5.79418356       5.79418356      -1.94072440       0.26356177      -0.00408106       0.00408106      -0.00343563
Pd      -5.75317069       7.66065833      -0.00000000       0.45457664       0.00938142      -0.00382015      -0.00000000
Pd      -3.87569492       5.79320904       0.00000000       0.01198044       0.00629074       0.01281086       0.00000000
Pd      -3.87669245       7.70263973      -1.94209324       0.26404373      -0.00669210      -0.00144660       0.00005271
Pd      -5.79418356       5.79418356       1.94072440       0.26356177      -0.00408106       0.00408106       0.00343563
Pd      -3.87142802       5.79165145       3.87142802       0.26257745      -0.00731273      -0.00152856       0.00731273
Pd      -3.87669245       7.70263973       1.94209324       0.26404373      -0.00669210      -0.00144660      -0.00005271
Pd      -3.83749820       9.55463148      -0.00000000       0.45463030       0.00234056      -0.00213006       0.00000000
Pd      -1.92141972     -11.43271194       0.00000000       0.45793796       0.01688814       0.00357827       0.00000000
Pd       0.00000000     -13.17335795       0.00000000       0.79488649       0.00000000       0.03099967       0.00000000
Pd       0.00000000     -11.43271194      -1.92141972       0.45793796       0.00000000       0.00357827       0.01688814
Pd       0.00000000     -11.43271194       1.92141972       0.45793796       0.00000000       0.00357827      -0.01688814
Pd      -1.94209324      -7.70263973      -3.87669245       0.26404373       0.00005271       0.00144660      -0.00669210
Pd       0.00000000      -9.55463148      -3.83749820       0.45463030      -0.00000000       0.00213006       0.00234056
Pd      -0.00000000      -7.66065833      -5.75317069       0.45457664       0.00000000       0.00382015       0.00938142
Pd      -1.94986788      -9.59615005      -1.94986788       0.26553197       0.00796127      -0.00793621       0.00796127
Pd      -1.94664976      -7.70173745      -0.00000000       0.01123474      -0.00821402      -0.00228198      -0.00000000
Pd      -0.00000000      -9.58608897      -0.00000000       0.02342423       0.00000000      -0.02833538       0.00000000
Pd       0.00000000      -7.70173745      -1.94664976       0.01123474      -0.00000000      -0.00228198      -0.00821402
Pd      -1.94986788      -9.59615005       1.94986788       0.26553197       0.00796127      -0.00793621      -0.00796127
Pd      -1.94209324      -7.70263973       3.87669245       0.26404373       0.00005271       0.00144660       0.00669210
Pd       0.00000000      -9.55463148       3.83749820       0.45463030       0.00000000       0.00213006      -0.00234056
Pd       0.00000000      -7.70173745       1.94664976       0.01123474      -0.00000000      -0.00228198       0.00821402
Pd       0.00000000      -7.66065833       5.75317069       0.45457664       0.00000000       0.00382015      -0.00938142
Pd      -1.94209324      -3.87669245      -7.70263973       0.26404373       0.00005271      -0.00669210       0.00144660
Pd       0.00000000      -5.75317069      -7.66065833       0.45457664      -0.00000000       0.00938142       0.00382015
Pd      -0.00000000      -3.83749820      -9.55463148       0.45463030      -0.00000000       0.00234056       0.00213006
Pd      -1.94072440      -5.79418356      -5.79418356       0.26356177      -0.00343563      -0.00408106      -0.00408106
Pd      -1.94517227      -3.87549481      -3.87549481       0.00412201      -0.01022359      -0.00410504      -0.00410504
Pd       0.00000000      -5.79320904      -3.87569492       0.01198044      -0.00000000      -0.01281086       0.00629074
Pd       0.00000000      -3.87569492      -5.79320904       0.01198044      -0.00000000       0.00629074      -0.01281086
Pd      -1.94690130      -5.79610209      -1.94690130       0.00354213      -0.00242885      -0.00547415      -0.00242885
Pd      -1.93765162      -3.86812988       0.00000000      -0.00124476       0.00375965       0.00979280       0.00000000
Pd      -0.00000000      -5.78847230      -0.00000000      -0.00157326       0.00000000       0.01534557       0.00000000
Pd       0.00000000      -3.86812988      -1.93765162      -0.00124476      -0.00000000       0.00979280       0.00375965
Pd      -1.94690130      -5.79610209       1.94690130       0.00354213      -0.00242885      -0.00547415       0.00242885
Pd      -1.94517227      -3.87549481       3.87549481       0.00412201      -0.01022359      -0.00410504       0.00410504
Pd       0.00000000      -5.79320904       3.87569492       0.01198044       0.00000000      -0.01281086      -0.00629074
Pd       0.00000000      -3.86812988       1.93765162      -0.00124476      -0.00000000       0.00979280      -0.00375965
Pd      -1.94072440      -5.79418356       5.79418356       0.26356177      -0.00343563      -0.00408106       0.00408106
Pd      -1.94209324      -3.87669245       7.70263973       0.26404373       0.00005271      -0.00669210      -0.00144660
Pd      -0.00000000      -5.75317069       7.66065833       0.45457664       0.00000000       0.00938142      -0.00382015
Pd       0.00000000      -3.87569492       5.79320904       0.01198044      -0.00000000       0.00629074       0.01281086
Pd       0.00000000      -3.83749820       9.55463148       0.45463030      -0.00000000       0.00234056      -0.00213006
Pd      -1.92141972       0.00000000     -11.43271194       0.45793796       0.01688814      -0.00000000       0.00357827
Pd       0.00000000      -1.92141972     -11.43271194       0.45793796       0.00000000       0.01688814       0.00357827
Pd       0.00000000       0.00000000     -13.17335795       0.79488649       0.00000000      -0.00000000       0.03099967
Pd      -1.94986788      -1.94986788      -9.59615005       0.26553197       0.00796127       0.00796127      -0.00793621
Pd      -1.94664976       0.00000000      -7.70173745       0.01123474      -0.00821402      -0.00000000      -0.00228198
Pd      -0.00000000      -1.94664976      -7.70173745       0.01123474      -0.00000000      -0.00821402      -0.00228198
Pd      -0.00000000       0.00000000      -9.58608897       0.02342423       0.00000000       0.00000000      -0.02833538
Pd      -1.94690130      -1.94690130      -5.79610209       0.00354213      -0.00242885      -0.00242885      -0.00547415
Pd      -1.93765162      -0.00000000      -3.86812988      -0.00124476       0.00375965       0.00000000       0.00979280
Pd       0.00000000      -1.93765162      -3.86812988      -0.00124476       0.00000000       0.00375965       0.00979280
Pd      -0.00000000      -0.00000000      -5.78847230      -0.00157326       0.00000000      -0.00000000       0.01534557
Pd      -1.93770992      -1.93770992      -1.93770992      -0.00092427       0.00642836       0.00642836       0.00642836
Pd      -1.93525245       0.00000000       0.00000000      -0.00075146      -0.00026163      -0.00000000       0.00000000
Pd       0.00000000      -1.93525245       0.00000000      -0.00075146       0.00000000      -0.00026163      -0.00000000
Pd       0.00000000       0.00000000      -1.93525245      -0.00075146       0.00000000      -0.00000000      -0.00026163
Pd      -1.93770992      -1.93770992       1.93770992      -0.00092427       0.00642836       0.00642836      -0.00642836
Pd      -1.93765162       0.00000000       3.86812988      -0.00124476       0.00375965      -0.00000000      -0.00979280
Pd       0.00000000      -1.93765162       3.86812988      -0.00124476      -0.00000000       0.00375965      -0.00979280
Pd       0.00000000       0.00000000       1.93525245      -0.00075146       0.00000000      -0.00000000       0.00026163
Pd      -1.94690130      -1.94690130       5.79610209       0.00354213      -0.00242885      -0.00242885       0.00547415
Pd      -1.94664976      -0.00000000       7.70173745       0.01123474      -0.00821402      -0.00000000       0.00228198
Pd      -0.00000000      -1.94664976       7.70173745       0.01123474      -0.00000000      -0.00821402       0.00228198
Pd      -0.00000000      -0.00000000       5.78847230      -0.00157326       0.00000000      -0.00000000      -0.01534557
Pd      -1.94986788      -1.94986788       9.59615005       0.26553197       0.00796127       0.00796127       0.00793621
Pd      -1.92141972      -0.00000000      11.43271194       0.45793796       0.01688814       0.00000000      -0.00357827
Pd      -0.00000000      -1.92141972      11.43271194       0.45793796       0.00000000       0.01688814      -0.00357827
Pd      -0.00000000       0.00000000       9.58608897       0.02342423      -0.00000000      -0.00000000       0.02833538
Pd      -0.00000000      -0.00000000      13.17335795       0.79488649       0.00000000       0.00000000      -0.03099967
Pd       0.00000000       1.92141972     -11.43271194       0.45793796       0.00000000      -0.01688814       0.00357827
Pd      -1.94986788       1.94986788      -9.59615005       0.26553197       0.00796127      -0.00796127      -0.00793621
Pd      -1.94209324       3.87669245      -7.70263973       0.26404373       0.00005271       0.00669210       0.00144660
Pd      -0.00000000       1.94664976      -7.70173745       0.01123474       0.00000000       0.00821402      -0.00228198
Pd       0.00000000       3.83749820      -9.55463148       0.45463030      -0.00000000      -0.00234056       0.00213006
Pd      -1.94690130       1.94690130      -5.79610209       0.00354213      -0.00242885       0.00242885      -0.00547415
Pd      -1.94517227       3.87549481      -3.87549481       0.00412201      -0.01022359       0.00410504      -0.00410504
Pd       0.00000000       1.93765162      -3.86812988      -0.00124476      -0.00000000      -0.00375965       0.00979280
Pd       0.00000000       3.87569492      -5.79320904       0.01198044      -0.00000000      -0.00629074      -0.01281086
Pd      -1.93770992       1.93770992      -1.93770992      -0.00092427       0.00642836      -0.00642836       0.00642836
Pd      -1.93765162       3.86812988       0.00000000      -0.00124476       0.00375965      -0.00979280       0.00000000
Pd       0.00000000       1.93525245       0.00000000      -0.00075146       0.00000000       0.00026163       0.00000000
Pd       0.00000000       3.86812988      -1.93765162      -0.00124476      -0.00000000      -0.00979280       0.00375965
Pd      -1.93770992       1.93770992       1.93770992      -0.00092427       0.00642836      -0.00642836      -0.00642836
Pd      -1.94517227       3.87549481       3.87549481       0.00412201      -0.01022359       0.00410504       0.00410504
Pd       0.00000000       1.93765162       3.86812988      -0.00124476      -0.00000000      -0.00375965      -0.00979280
Pd       0.00000000       3.86812988       1.93765162      -0.00124476      -0.00000000      -0.00979280      -0.00375965
Pd      -1.94690130       1.94690130       5.79610209       0.00354213      -0.00242885       0.00242885       0.00547415
Pd      -1.94209324       3.87669245       7.70263973       0.26404373       0.00005271       0.00669210      -0.00144660
Pd       0.00000000       1.94664976       7.70173745       0.01123474      -0.00000000       0.00821402       0.00228198
Pd       0.00000000       3.87569492       5.79320904       0.01198044      -0.00000000      -0.00629074       0.01281086
Pd      -1.94986788       1.94986788       9.59615005       0.26553197       0.00796127      -0.00796127       0.00793621
Pd       0.00000000       1.92141972      11.43271194       0.45793796      -0.00000000      -0.01688814      -0.00357827
Pd      -0.00000000       3.83749820       9.55463148       0.45463030      -0.00000000      -0.00234056      -0.00213006
Pd       0.00000000       5.75317069      -7.66065833       0.45457664      -0.00000000      -0.00938142       0.00382015
Pd      -1.94072440       5.79418356      -5.79418356       0.26356177      -0.00343563       0.00408106      -0.00408106
Pd      -1.94209324       7.70263973      -3.87669245       0.26404373       0.00005271      -0.00144660      -0.00669210
Pd       0.00000000       5.79320904      -3.87569492       0.01198044       0.00000000       0.01281086       0.00629074
Pd      -0.00000000       7.66065833      -5.75317069       0.45457664       0.00000000      -0.00382015       0.00938142
Pd      -1.94690130       5.79610209      -1.94690130       0.00354213      -0.00242885       0.00547415      -0.00242885
Pd      -1.94664976       7.70173745       0.00000000       0.01123474      -0.00821402       0.00228198      -0.00000000
Pd      -0.00000000       5.78847230      -0.00000000      -0.00157326       0.00000000      -0.01534557       0.00000000
Pd       0.00000000       7.70173745      -1.94664976       0.01123474      -0.00000000       0.00228198      -0.00821402
Pd      -1.94690130       5.79610209       1.94690130       0.00354213      -0.00242885       0.00547415       0.00242885
Pd      -1.94209324       7.70263973       3.87669245       0.26404373       0.00005271      -0.00144660       0.00669210
Pd       0.00000000       5.79320904       3.87569492       0.01198044       0.00000000       0.01281086      -0.00629074
Pd       0.00000000       7.70173745       1.94664976       0.01123474      -0.00000000       0.00228198       0.00821402
Pd      -1.94072440       5.79418356       5.79418356       0.26356177      -0.00343563       0.00408106       0.00408106
Pd       0.00000000       5.75317069       7.66065833       0.45457664       0.00000000      -0.00938142      -0.00382015
Pd       0.00000000       7.66065833       5.75317069       0.45457664      -0.00000000      -0.00382015      -0.00938142
Pd      -0.00000000       9.55463148      -3.83749820       0.45463030       0.00000000      -0.00213006       0.00234056
Pd      -1.94986788       9.59615005      -1.94986788       0.26553197       0.00796127       0.00793621       0.00796127
Pd      -1.92141972      11.43271194       0.00000000       0.45793796       0.01688814      -0.00357827       0.00000000
Pd       0.00000000       9.58608897       0.00000000       0.02342423      -0.00000000       0.02833538       0.00000000
Pd      -0.00000000      11.43271194      -1.92141972       0.45793796      -0.00000000      -0.00357827       0.01688814
Pd      -1.94986788       9.59615005       1.94986788       0.26553197       0.00796127       0.00793621      -0.00796127
Pd      -0.00000000       9.55463148       3.83749820       0.45463030      -0.00000000      -0.00213006      -0.00234056
Pd      -0.00000000      11.43271194       1.92141972       0.45793796      -0.00000000      -0.00357827      -0.01688814
Pd       0.00000000      13.17335795       0.00000000       0.79488649      -0.00000000      -0.03099967      -0.00000000
Pd       1.92141972     -11.43271194      -0.00000000       0.45793796      -0.01688814       0.00357827       0.00000000
Pd       1.94209324      -7.70263973      -3.87669245       0.26404373      -0.00005271       0.00144660      -0.00669210
Pd       1.94986788      -9.59615005      -1.94986788       0.26553197      -0.00796127      -0.00793621       0.00796127
Pd       1.94664976      -7.70173745       0.00000000       0.01123474       0.00821402      -0.00228198      -0.00000000
Pd       3.83749820      -9.55463148       0.00000000       0.45463030      -0.00234056       0.00213006       0.00000000
Pd       3.87669245      -7.70263973      -1.94209324       0.26404373       0.00669210       0.00144660       0.00005271
Pd       1.94986788      -9.59615005       1.94986788       0.26553197      -0.00796127      -0.00793621      -0.00796127
Pd       1.94209324      -7.70263973       3.87669245       0.26404373      -0.00005271       0.00144660       0.00669210
Pd       3.87669245      -7.70263973       1.94209324       0.26404373       0.00669210       0.00144660      -0.00005271
Pd       1.94209324      -3.87669245      -7.70263973       0.26404373      -0.00005271      -0.00669210       0.00144660
Pd       1.94072440      -5.79418356      -5.79418356       0.26356177       0.00343563      -0.00408106      -0.00408106
Pd       1.94517227      -3.87549481      -3.87549481       0.00412201       0.01022359      -0.00410504      -0.00410504
Pd       3.87142802      -5.79165145      -3.87142802       0.26257745       0.00731273       0.00152856      -0.00731273
Pd       3.87142802      -3.87142802      -5.79165145       0.26257745       0.00731273      -0.00731273       0.00152856
Pd       1.94690130      -5.79610209      -1.94690130       0.00354213       0.00242885      -0.00547415      -0.00242885
Pd       1.93765162      -3.86812988       0.00000000      -0.00124476      -0.00375965       0.00979280      -0.00000000
Pd       3.87569492      -5.79320904       0.00000000       0.01198044      -0.00629074      -0.01281086      -0.00000000
Pd       3.87549481      -3.87549481      -1.94517227       0.00412201       0.00410504      -0.00410504      -0.01022359
Pd       1.94690130      -5.79610209       1.94690130       0.00354213       0.00242885      -0.00547415       0.00242885
Pd       1.94517227      -3.87549481       3.87549481       0.00412201       0.01022359      -0.00410504       0.00410504
Pd       3.87142802      -5.79165145       3.87142802       0.26257745       0.00731273       0.00152856       0.00731273
Pd       3.87549481      -3.87549481       1.94517227       0.00412201       0.00410504      -0.00410504       0.01022359
Pd       1.94072440      -5.79418356       5.79418356       0.26356177       0.00343563      -0.00408106       0.00408106
Pd       1.94209324      -3.87669245       7.70263973       0.26404373      -0.00005271      -0.00669210      -0.00144660
Pd       3.87142802      -3.87142802       5.79165145       0.26257745       0.00731273      -0.00731273      -0.00152856
Pd       1.92141972       0.00000000     -11.43271194       0.45793796      -0.01688814      -0.00000000       0.00357827
Pd       1.94986788      -1.94986788      -9.59615005       0.26553197      -0.00796127       0.00796127      -0.00793621
Pd       1.94664976      -0.00000000      -7.70173745       0.01123474       0.00821402      -0.00000000      -0.00228198
Pd       3.87669245      -1.94209324      -7.70263973       0.26404373       0.00669210       0.00005271       0.00144660
Pd       3.83749820       0.00000000      -9.55463148       0.45463030      -0.00234056      -0.00000000       0.00213006
Pd       1.94690130      -1.94690130      -5.79610209       0.00354213       0.00242885      -0.00242885      -0.00547415
Pd       1.93765162      -0.00000000      -3.86812988      -0.00124476      -0.00375965       0.00000000       0.00979280
Pd       3.87549481      -1.94517227      -3.87549481       0.00412201       0.00410504      -0.01022359      -0.00410504
Pd       3.87569492      -0.00000000      -5.79320904       0.01198044      -0.00629074       0.00000000      -0.01281086
Pd       1.93770992      -1.93770992      -1.93770992      -0.00092427      -0.00642836       0.00642836       0.00642836
Pd       1.93525245      -0.00000000       0.00000000      -0.00075146       0.00026163       0.00000000       0.00000000
Pd       3.86812988      -1.93765162       0.00000000      -0.00124476      -0.00979280       0.00375965      -0.00000000
Pd       3.86812988       0.00000000      -1.93765162      -0.00124476      -0.00979280      -0.00000000       0.00375965
Pd       1.93770992      -1.93770992       1.93770992      -0.00092427      -0.00642836       0.00642836      -0.00642836
Pd       1.93765162       0.00000000       3.86812988      -0.00124476      -0.00375965      -0.00000000      -0.00979280
Pd       3.87549481      -1.94517227       3.87549481       0.00412201       0.00410504      -0.01022359       0.00410504
Pd       3.86812988       0.00000000       1.93765162      -0.00124476      -0.00979280      -0.00000000      -0.00375965
Pd       1.94690130      -1.94690130       5.79610209       0.00354213       0.00242885      -0.00242885       0.00547415
Pd       1.94664976      -0.00000000       7.70173745       0.01123474       0.00821402      -0.00000000       0.00228198
Pd       3.87669245      -1.94209324       7.70263973       0.26404373       0.00669210       0.00005271      -0.00144660
Pd       3.87569492      -0.00000000       5.79320904       0.01198044      -0.00629074      -0.00000000       0.01281086
Pd       1.94986788      -1.94986788       9.59615005       0.26553197      -0.00796127       0.00796127       0.00793621
Pd       1.92141972       0.00000000      11.43271194       0.45793796      -0.01688814      -0.00000000      -0.00357827
Pd       3.83749820       0.00000000       9.55463148       0.45463030      -0.00234056      -0.00000000      -0.00213006
Pd       1.94986788       1.94986788      -9.59615005       0.26553197      -0.00796127      -0.00796127      -0.00793621
Pd       1.94209324       3.87669245      -7.70263973       0.26404373      -0.00005271       0.00669210       0.00144660
Pd       3.87669245       1.94209324      -7.70263973       0.26404373       0.00669210      -0.00005271       0.00144660
Pd       1.94690130       1.94690130      -5.79610209       0.00354213       0.00242885       0.00242885      -0.00547415
Pd       1.94517227       3.87549481      -3.87549481       0.00412201       0.01022359       0.00410504      -0.00410504
Pd       3.87549481       1.94517227      -3.87549481       0.00412201       0.00410504       0.01022359      -0.00410504
Pd       3.87142802       3.87142802      -5.79165145       0.26257745       0.00731273       0.00731273       0.00152856
Pd       1.93770992       1.93770992      -1.93770992      -0.00092427      -0.00642836      -0.00642836       0.00642836
Pd       1.93765162       3.86812988       0.00000000      -0.00124476      -0.00375965      -0.00979280      -0.00000000
Pd       3.86812988       1.93765162       0.00000000      -0.00124476      -0.00979280      -0.00375965      -0.00000000
Pd       3.87549481       3.87549481      -1.94517227       0.00412201       0.00410504       0.00410504      -0.01022359
Pd       1.93770992       1.93770992       1.93770992      -0.00092427      -0.00642836      -0.00642836      -0.00642836
Pd       1.94517227       3.87549481       3.87549481       0.00412201       0.01022359       0.00410504       0.00410504
Pd       3.87549481       1.94517227       3.87549481       0.00412201       0.00410504       0.01022359       0.00410504
Pd       3.87549481       3.87549481       1.94517227       0.00412201       0.00410504       0.00410504       0.01022359
Pd       1.94690130       1.94690130       5.79610209       0.00354213       0.00242885       0.00242885       0.00547415
Pd       1.94209324       3.87669245       7.70263973       0.26404373      -0.00005271       0.00669210      -0.00144660
Pd       3.87669245       1.94209324       7.70263973       0.26404373       0.00669210      -0.00005271      -0.00144660
Pd       3.87142802       3.87142802       5.79165145       0.26257745       0.00731273       0.00731273      -0.00152856
Pd       1.94986788       1.94986788       9.59615005       0.26553197      -0.00796127      -0.00796127       0.00793621
Pd       1.94072440       5.79418356      -5.79418356       0.26356177       0.00343563       0.00408106      -0.00408106
Pd       1.94209324       7.70263973      -3.87669245       0.26404373      -0.00005271      -0.00144660      -0.00669210
Pd       3.87142802       5.79165145      -3.87142802       0.26257745       0.00731273      -0.00152856      -0.00731273
Pd       1.94690130       5.79610209      -1.94690130       0.00354213       0.00242885       0.00547415      -0.00242885
Pd       1.94664976       7.70173745      -0.00000000       0.01123474       0.00821402       0.00228198       0.00000000
Pd       3.87569492       5.79320904       0.00000000       0.01198044      -0.00629074       0.01281086      -0.00000000
Pd       3.87669245       7.70263973      -1.94209324       0.26404373       0.00669210      -0.00144660       0.00005271
Pd       1.94690130       5.79610209       1.94690130       0.00354213       0.00242885       0.00547415       0.00242885
Pd       1.94209324       7.70263973       3.87669245       0.26404373      -0.00005271      -0.00144660       0.00669210
Pd       3.87142802       5.79165145       3.87142802       0.26257745       0.00731273      -0.00152856       0.00731273
Pd       3.87669245       7.70263973       1.94209324       0.26404373       0.00669210      -0.00144660      -0.00005271
Pd       1.94072440       5.79418356       5.79418356       0.26356177       0.00343563       0.00408106       0.00408106
Pd       1.94986788       9.59615005      -1.94986788       0.26553197      -0.00796127       0.00793621       0.00796127
Pd       1.92141972      11.43271194       0.00000000       0.45793796      -0.01688814      -0.00357827       0.00000000
Pd       3.83749820       9.55463148       0.00000000       0.45463030      -0.00234056      -0.00213006      -0.00000000
Pd       1.94986788       9.59615005       1.94986788       0.26553197      -0.00796127       0.00793621      -0.00796127
Pd       5.75317069      -7.66065833       0.00000000       0.45457664      -0.00938142       0.00382015       0.00000000
Pd       5.79165145      -3.87142802      -3.87142802       0.26257745      -0.00152856      -0.00731273      -0.00731273
Pd       5.79418356      -5.79418356      -1.94072440       0.26356177       0.00408106      -0.00408106      -0.00343563
Pd       5.79320904      -3.87569492       0.00000000       0.01198044       0.01281086       0.00629074      -0.00000000
Pd       7.66065833      -5.75317069       0.00000000       0.45457664      -0.00382015       0.00938142      -0.00000000
Pd       7.70263973      -3.87669245      -1.94209324       0.26404373      -0.00144660      -0.00669210       0.00005271
Pd       5.79418356      -5.79418356       1.94072440       0.26356177       0.00408106      -0.00408106       0.00343563
Pd       5.79165145      -3.87142802       3.87142802       0.26257745      -0.00152856      -0.00731273       0.00731273
Pd       7.70263973      -3.87669245       1.94209324       0.26404373      -0.00144660      -0.00669210      -0.00005271
Pd       5.75317069      -0.00000000      -7.66065833       0.45457664      -0.00938142      -0.00000000       0.00382015
Pd       5.79418356      -1.94072440      -5.79418356       0.26356177       0.00408106      -0.00343563      -0.00408106
Pd       5.79320904       0.00000000      -3.87569492       0.01198044       0.01281086       0.00000000       0.00629074
Pd       7.70263973      -1.94209324      -3.87669245       0.26404373      -0.00144660       0.00005271      -0.00669210
Pd       7.66065833      -0.00000000      -5.75317069       0.45457664      -0.00382015      -0.00000000       0.00938142
Pd       5.79610209      -1.94690130      -1.94690130       0.00354213       0.00547415      -0.00242885      -0.00242885
Pd       5.78847230       0.00000000       0.00000000      -0.00157326      -0.01534557      -0.00000000       0.00000000
Pd       7.70173745      -1.94664976       0.00000000       0.01123474       0.00228198      -0.00821402      -0.00000000
Pd       7.70173745      -0.00000000      -1.94664976       0.01123474       0.00228198      -0.00000000      -0.00821402
Pd       5.79610209      -1.94690130       1.94690130       0.00354213       0.00547415      -0.00242885       0.00242885
Pd       5.79320904      -0.00000000       3.87569492       0.01198044       0.01281086       0.00000000      -0.00629074
Pd       7.70263973      -1.94209324       3.87669245       0.26404373      -0.00144660       0.00005271       0.00669210
Pd       7.70173745      -0.00000000       1.94664976       0.01123474       0.00228198       0.00000000       0.00821402
Pd       5.79418356      -1.94072440       5.79418356       0.26356177       0.00408106      -0.00343563       0.00408106
Pd       5.75317069       0.00000000       7.66065833       0.45457664      -0.00938142      -0.00000000      -0.00382015
Pd       7.66065833       0.00000000       5.75317069       0.45457664      -0.00382015      -0.00000000      -0.00938142
Pd       5.79418356       1.94072440      -5.79418356       0.26356177       0.00408106       0.00343563      -0.00408106
Pd       5.79165145       3.87142802      -3.87142802       0.26257745      -0.00152856       0.00731273      -0.00731273
Pd       7.70263973       1.94209324      -3.87669245       0.26404373      -0.00144660      -0.00005271      -0.00669210
Pd       5.79610209       1.94690130      -1.94690130       0.00354213       0.00547415       0.00242885      -0.00242885
Pd       5.79320904       3.87569492       0.00000000       0.01198044       0.01281086      -0.00629074      -0.00000000
Pd       7.70173745       1.94664976       0.00000000       0.01123474       0.00228198       0.00821402      -0.00000000
Pd       7.70263973       3.87669245      -1.94209324       0.26404373      -0.00144660       0.00669210       0.00005271
Pd       5.79610209       1.94690130       1.94690130       0.00354213       0.00547415       0.00242885       0.00242885
Pd       5.79165145       3.87142802       3.87142802       0.26257745      -0.00152856       0.00731273       0.00731273
Pd       7.70263973       1.94209324       3.87669245       0.26404373      -0.00144660      -0.00005271       0.00669210
Pd       7.70263973       3.87669245       1.94209324       0.26404373      -0.00144660       0.00669210      -0.00005271
Pd       5.79418356       1.94072440       5.79418356       0.26356177       0.00408106       0.00343563       0.00408106
Pd       5.79418356       5.79418356      -1.94072440       0.26356177       0.00408106       0.00408106      -0.00343563
Pd       5.75317069       7.66065833       0.00000000       0.45457664      -0.00938142      -0.00382015       0.00000000
Pd       7.66065833       5.75317069       0.00000000       0.45457664      -0.00382015      -0.00938142       0.00000000
Pd       5.79418356       5.79418356       1.94072440       0.26356177       0.00408106       0.00408106       0.00343563
Pd       9.55463148      -3.83749820      -0.00000000       0.45463030      -0.00213006       0.00234056       0.00000000
Pd       9.55463148       0.00000000      -3.83749820       0.45463030      -0.00213006      -0.00000000       0.00234056
Pd       9.59615005      -1.94986788      -1.94986788       0.26553197       0.00793621       0.00796127       0.00796127
Pd       9.58608897      -0.00000000       0.00000000       0.02342423       0.02833538       0.00000000      -0.00000000
Pd      11.43271194      -1.92141972      -0.00000000       0.45793796      -0.00357827       0.01688814       0.00000000
Pd      11.43271194       0.00000000      -1.92141972       0.45793796      -0.00357827      -0.00000000       0.01688814
Pd       9.59615005      -1.94986788       1.94986788       0.26553197       0.00793621       0.00796127      -0.00796127
Pd       9.55463148      -0.00000000       3.83749820       0.45463030      -0.00213006       0.00000000      -0.00234056
Pd      11.43271194       0.00000000       1.92141972       0.45793796      -0.00357827      -0.00000000      -0.01688814
Pd       9.59615005       1.94986788      -1.94986788       0.26553197       0.00793621      -0.00796127       0.00796127
Pd       9.55463148       3.83749820       0.00000000       0.45463030      -0.00213006      -0.00234056      -0.00000000
Pd      11.43271194       1.92141972       0.00000000       0.45793796      -0.00357827      -0.01688814      -0.00000000
Pd       9.59615005       1.94986788       1.94986788       0.26553197       0.00793621      -0.00796127      -0.00796127
Pd      13.17335795       0.00000000       0.00000000       0.79488649      -0.03099967      -0.00000000      -0.00000000
