500
Lattice="27.506453788156698 0.0 0.0 0.0 23.821287748566405 0.0 0.0 0.0 68.98357018859058" Properties=species:S:1:pos:R:3:tags:I:1:energies:R:1:forces:R:3 energy=54.76149580036546 free_energy=54.76149580036546 stress="0.002909869381465493 -3.0066240621725628e-18 2.9735320611652253e-18 -3.0066240621725628e-18 0.0029098693814654823 2.6549456820199042e-18 2.9735320611652253e-18 2.6549456820199042e-18 0.00013197302941472604" pbc="T T T"
Pd      -0.00000000       1.58808585      30.06110702        5       0.26981147       0.00000000      -0.00000000       0.02089927
Pd       2.75064538       1.58808585      30.06110702        5       0.26981147      -0.00000000       0.00000000       0.02089927
Pd       5.50129076       1.58808585      30.06110702        5       0.26981147       0.00000000      -0.00000000       0.02089927
Pd       8.25193614       1.58808585      30.06110702        5       0.26981147      -0.00000000       0.00000000       0.02089927
Pd      11.00258152       1.58808585      30.06110702        5       0.26981147      -0.00000000       0.00000000       0.02089927
Pd      13.75322689       1.58808585      30.06110702        5       0.26981147       0.00000000      -0.00000000       0.02089927
Pd      16.50387227       1.58808585      30.06110702        5       0.26981147      -0.00000000      -0.00000000       0.02089927
Pd      19.25451765       1.58808585      30.06110702        5       0.26981147       0.00000000      -0.00000000       0.02089927
Pd      22.00516303       1.58808585      30.06110702        5       0.26981147       0.00000000       0.00000000       0.02089927
Pd      24.75580841       1.58808585      30.06110702        5       0.26981147      -0.00000000       0.00000000       0.02089927
Pd       1.37532269       3.97021462      30.06110702        5       0.26981147      -0.00000000       0.00000000       0.02089927
Pd       4.12596807       3.97021462      30.06110702        5       0.26981147      -0.00000000      -0.00000000       0.02089927
Pd       6.87661345       3.97021462      30.06110702        5       0.26981147       0.00000000      -0.00000000       0.02089927
Pd       9.62725883       3.97021462      30.06110702        5       0.26981147      -0.00000000       0.00000000       0.02089927
Pd      12.37790420       3.97021462      30.06110702        5       0.26981147       0.00000000       0.00000000       0.02089927
Pd      15.12854958       3.97021462      30.06110702        5       0.26981147      -0.00000000      -0.00000000       0.02089927
Pd      17.87919496       3.97021462      30.06110702        5       0.26981147      -0.00000000       0.00000000       0.02089927
Pd      20.62984034       3.97021462      30.06110702        5       0.26981147       0.00000000       0.00000000       0.02089927
Pd      23.38048572       3.97021462      30.06110702        5       0.26981147      -0.00000000       0.00000000       0.02089927
Pd      26.13113110       3.97021462      30.06110702        5       0.26981147      -0.00000000       0.00000000       0.02089927
Pd      -0.00000000       6.35234340      30.06110702        5       0.26981147       0.00000000       0.00000000       0.02089927
Pd       2.75064538       6.35234340      30.06110702        5       0.26981147      -0.00000000       0.00000000       0.02089927
Pd       5.50129076       6.35234340      30.06110702        5       0.26981147       0.00000000       0.00000000       0.02089927
Pd       8.25193614       6.35234340      30.06110702        5       0.26981147      -0.00000000      -0.00000000       0.02089927
Pd      11.00258152       6.35234340      30.06110702        5       0.26981147       0.00000000       0.00000000       0.02089927
Pd      13.75322689       6.35234340      30.06110702        5       0.26981147       0.00000000      -0.00000000       0.02089927
Pd      16.50387227       6.35234340      30.06110702        5       0.26981147       0.00000000       0.00000000       0.02089927
Pd      19.25451765       6.35234340      30.06110702        5       0.26981147       0.00000000      -0.00000000       0.02089927
Pd      22.00516303       6.35234340      30.06110702        5       0.26981147      -0.00000000      -0.00000000       0.02089927
Pd      24.75580841       6.35234340      30.06110702        5       0.26981147       0.00000000      -0.00000000       0.02089927
Pd       1.37532269       8.73447217      30.06110702        5       0.26981147       0.00000000       0.00000000       0.02089927
Pd       4.12596807       8.73447217      30.06110702        5       0.26981147       0.00000000       0.00000000       0.02089927
Pd       6.87661345       8.73447217      30.06110702        5       0.26981147       0.00000000       0.00000000       0.02089927
Pd       9.62725883       8.73447217      30.06110702        5       0.26981147      -0.00000000       0.00000000       0.02089927
Pd      12.37790420       8.73447217      30.06110702        5       0.26981147       0.00000000       0.00000000       0.02089927
Pd      15.12854958       8.73447217      30.06110702        5       0.26981147       0.00000000       0.00000000       0.02089927
Pd      17.87919496       8.73447217      30.06110702        5       0.26981147      -0.00000000       0.00000000       0.02089927
Pd      20.62984034       8.73447217      30.06110702        5       0.26981147       0.00000000       0.00000000       0.02089927
Pd      23.38048572       8.73447217      30.06110702        5       0.26981147      -0.00000000       0.00000000       0.02089927
Pd      26.13113110       8.73447217      30.06110702        5       0.26981147      -0.00000000       0.00000000       0.02089927
Pd      -0.00000000      11.11660095      30.06110702        5       0.26981147       0.00000000       0.00000000       0.02089927
Pd       2.75064538      11.11660095      30.06110702        5       0.26981147      -0.00000000      -0.00000000       0.02089927
Pd       5.50129076      11.11660095      30.06110702        5       0.26981147       0.00000000       0.00000000       0.02089927
Pd       8.25193614      11.11660095      30.06110702        5       0.26981147       0.00000000      -0.00000000       0.02089927
Pd      11.00258152      11.11660095      30.06110702        5       0.26981147      -0.00000000       0.00000000       0.02089927
Pd      13.75322689      11.11660095      30.06110702        5       0.26981147       0.00000000       0.00000000       0.02089927
Pd      16.50387227      11.11660095      30.06110702        5       0.26981147      -0.00000000       0.00000000       0.02089927
Pd      19.25451765      11.11660095      30.06110702        5       0.26981147       0.00000000       0.00000000       0.02089927
Pd      22.00516303      11.11660095      30.06110702        5       0.26981147       0.00000000       0.00000000       0.02089927
Pd      24.75580841      11.11660095      30.06110702        5       0.26981147      -0.00000000       0.00000000       0.02089927
Pd       1.37532269      13.49872972      30.06110702        5       0.26981147      -0.00000000       0.00000000       0.02089927
Pd       4.12596807      13.49872972      30.06110702        5       0.26981147       0.00000000       0.00000000       0.02089927
Pd       6.87661345      13.49872972      30.06110702        5       0.26981147      -0.00000000       0.00000000       0.02089927
Pd       9.62725883      13.49872972      30.06110702        5       0.26981147       0.00000000      -0.00000000       0.02089927
Pd      12.37790420      13.49872972      30.06110702        5       0.26981147       0.00000000       0.00000000       0.02089927
Pd      15.12854958      13.49872972      30.06110702        5       0.26981147       0.00000000       0.00000000       0.02089927
Pd      17.87919496      13.49872972      30.06110702        5       0.26981147      -0.00000000       0.00000000       0.02089927
Pd      20.62984034      13.49872972      30.06110702        5       0.26981147      -0.00000000       0.00000000       0.02089927
Pd      23.38048572      13.49872972      30.06110702        5       0.26981147      -0.00000000       0.00000000       0.02089927
Pd      26.13113110      13.49872972      30.06110702        5       0.26981147      -0.00000000       0.00000000       0.02089927
Pd      -0.00000000      15.88085850      30.06110702        5       0.26981147       0.00000000      -0.00000000       0.02089927
Pd       2.75064538      15.88085850      30.06110702        5       0.26981147       0.00000000      -0.00000000       0.02089927
Pd       5.50129076      15.88085850      30.06110702        5       0.26981147       0.00000000       0.00000000       0.02089927
Pd       8.25193614      15.88085850      30.06110702        5       0.26981147      -0.00000000       0.00000000       0.02089927
Pd      11.00258152      15.88085850      30.06110702        5       0.26981147      -0.00000000       0.00000000       0.02089927
Pd      13.75322689      15.88085850      30.06110702        5       0.26981147       0.00000000       0.00000000       0.02089927
Pd      16.50387227      15.88085850      30.06110702        5       0.26981147      -0.00000000       0.00000000       0.02089927
Pd      19.25451765      15.88085850      30.06110702        5       0.26981147       0.00000000      -0.00000000       0.02089927
Pd      22.00516303      15.88085850      30.06110702        5       0.26981147      -0.00000000       0.00000000       0.02089927
Pd      24.75580841      15.88085850      30.06110702        5       0.26981147      -0.00000000       0.00000000       0.02089927
Pd       1.37532269      18.26298727      30.06110702        5       0.26981147      -0.00000000      -0.00000000       0.02089927
Pd       4.12596807      18.26298727      30.06110702        5       0.26981147       0.00000000      -0.00000000       0.02089927
Pd       6.87661345      18.26298727      30.06110702        5       0.26981147       0.00000000      -0.00000000       0.02089927
Pd       9.62725883      18.26298727      30.06110702        5       0.26981147       0.00000000      -0.00000000       0.02089927
Pd      12.37790420      18.26298727      30.06110702        5       0.26981147       0.00000000      -0.00000000       0.02089927
Pd      15.12854958      18.26298727      30.06110702        5       0.26981147       0.00000000      -0.00000000       0.02089927
Pd      17.87919496      18.26298727      30.06110702        5       0.26981147      -0.00000000      -0.00000000       0.02089927
Pd      20.62984034      18.26298727      30.06110702        5       0.26981147       0.00000000      -0.00000000       0.02089927
Pd      23.38048572      18.26298727      30.06110702        5       0.26981147      -0.00000000      -0.00000000       0.02089927
Pd      26.13113110      18.26298727      30.06110702        5       0.26981147      -0.00000000      -0.00000000       0.02089927
Pd      -0.00000000      20.64511605      30.06110702        5       0.26981147       0.00000000      -0.00000000       0.02089927
Pd       2.75064538      20.64511605      30.06110702        5       0.26981147       0.00000000       0.00000000       0.02089927
Pd       5.50129076      20.64511605      30.06110702        5       0.26981147       0.00000000      -0.00000000       0.02089927
Pd       8.25193614      20.64511605      30.06110702        5       0.26981147      -0.00000000      -0.00000000       0.02089927
Pd      11.00258152      20.64511605      30.06110702        5       0.26981147      -0.00000000       0.00000000       0.02089927
Pd      13.75322689      20.64511605      30.06110702        5       0.26981147       0.00000000       0.00000000       0.02089927
Pd      16.50387227      20.64511605      30.06110702        5       0.26981147      -0.00000000       0.00000000       0.02089927
Pd      19.25451765      20.64511605      30.06110702        5       0.26981147       0.00000000       0.00000000       0.02089927
Pd      22.00516303      20.64511605      30.06110702        5       0.26981147       0.00000000       0.00000000       0.02089927
Pd      24.75580841      20.64511605      30.06110702        5       0.26981147       0.00000000       0.00000000       0.02089927
Pd       1.37532269      23.02724482      30.06110702        5       0.26981147      -0.00000000      -0.00000000       0.02089927
Pd       4.12596807      23.02724482      30.06110702        5       0.26981147       0.00000000       0.00000000       0.02089927
Pd       6.87661345      23.02724482      30.06110702        5       0.26981147       0.00000000       0.00000000       0.02089927
Pd       9.62725883      23.02724482      30.06110702        5       0.26981147      -0.00000000      -0.00000000       0.02089927
Pd      12.37790420      23.02724482      30.06110702        5       0.26981147       0.00000000       0.00000000       0.02089927
Pd      15.12854958      23.02724482      30.06110702        5       0.26981147      -0.00000000       0.00000000       0.02089927
Pd      17.87919496      23.02724482      30.06110702        5       0.26981147      -0.00000000       0.00000000       0.02089927
Pd      20.62984034      23.02724482      30.06110702        5       0.26981147       0.00000000      -0.00000000       0.02089927
Pd      23.38048572      23.02724482      30.06110702        5       0.26981147      -0.00000000      -0.00000000       0.02089927
Pd      26.13113110      23.02724482      30.06110702        5       0.26981147       0.00000000      -0.00000000       0.02089927
Pd       0.00000000      -0.00000000      32.25723128        4       0.00428657      -0.00000000       0.00000000      -0.02809131
Pd       2.75064538       0.00000000      32.25723128        4       0.00428657       0.00000000      -0.00000000      -0.02809131
Pd       5.50129076       0.00000000      32.25723128        4       0.00428657      -0.00000000      -0.00000000      -0.02809131
Pd       8.25193614       0.00000000      32.25723128        4       0.00428657       0.00000000      -0.00000000      -0.02809131
Pd      11.00258152       0.00000000      32.25723128        4       0.00428657      -0.00000000      -0.00000000      -0.02809131
Pd      13.75322689       0.00000000      32.25723128        4       0.00428657      -0.00000000      -0.00000000      -0.02809131
Pd      16.50387227       0.00000000      32.25723128        4       0.00428657      -0.00000000      -0.00000000      -0.02809131
Pd      19.25451765       0.00000000      32.25723128        4       0.00428657      -0.00000000      -0.00000000      -0.02809131
Pd      22.00516303       0.00000000      32.25723128        4       0.00428657       0.00000000      -0.00000000      -0.02809131
Pd      24.75580841       0.00000000      32.25723128        4       0.00428657       0.00000000      -0.00000000      -0.02809131
Pd       1.37532269       2.38212877      32.25723128        4       0.00428657      -0.00000000       0.00000000      -0.02809131
Pd       4.12596807       2.38212877      32.25723128        4       0.00428657       0.00000000       0.00000000      -0.02809131
Pd       6.87661345       2.38212877      32.25723128        4       0.00428657      -0.00000000       0.00000000      -0.02809131
Pd       9.62725883       2.38212877      32.25723128        4       0.00428657       0.00000000       0.00000000      -0.02809131
Pd      12.37790420       2.38212877      32.25723128        4       0.00428657       0.00000000       0.00000000      -0.02809131
Pd      15.12854958       2.38212877      32.25723128        4       0.00428657      -0.00000000       0.00000000      -0.02809131
Pd      17.87919496       2.38212877      32.25723128        4       0.00428657      -0.00000000       0.00000000      -0.02809131
Pd      20.62984034       2.38212877      32.25723128        4       0.00428657       0.00000000       0.00000000      -0.02809131
Pd      23.38048572       2.38212877      32.25723128        4       0.00428657      -0.00000000       0.00000000      -0.02809131
Pd      26.13113110       2.38212877      32.25723128        4       0.00428657      -0.00000000       0.00000000      -0.02809131
Pd      -0.00000000       4.76425755      32.25723128        4       0.00428657       0.00000000       0.00000000      -0.02809131
Pd       2.75064538       4.76425755      32.25723128        4       0.00428657       0.00000000      -0.00000000      -0.02809131
Pd       5.50129076       4.76425755      32.25723128        4       0.00428657      -0.00000000      -0.00000000      -0.02809131
Pd       8.25193614       4.76425755      32.25723128        4       0.00428657       0.00000000      -0.00000000      -0.02809131
Pd      11.00258152       4.76425755      32.25723128        4       0.00428657      -0.00000000      -0.00000000      -0.02809131
Pd      13.75322689       4.76425755      32.25723128        4       0.00428657       0.00000000      -0.00000000      -0.02809131
Pd      16.50387227       4.76425755      32.25723128        4       0.00428657      -0.00000000      -0.00000000      -0.02809131
Pd      19.25451765       4.76425755      32.25723128        4       0.00428657       0.00000000      -0.00000000      -0.02809131
Pd      22.00516303       4.76425755      32.25723128        4       0.00428657       0.00000000      -0.00000000      -0.02809131
Pd      24.75580841       4.76425755      32.25723128        4       0.00428657      -0.00000000       0.00000000      -0.02809131
Pd       1.37532269       7.14638632      32.25723128        4       0.00428657       0.00000000       0.00000000      -0.02809131
Pd       4.12596807       7.14638632      32.25723128        4       0.00428657       0.00000000      -0.00000000      -0.02809131
Pd       6.87661345       7.14638632      32.25723128        4       0.00428657      -0.00000000      -0.00000000      -0.02809131
Pd       9.62725883       7.14638632      32.25723128        4       0.00428657      -0.00000000      -0.00000000      -0.02809131
Pd      12.37790420       7.14638632      32.25723128        4       0.00428657       0.00000000       0.00000000      -0.02809131
Pd      15.12854958       7.14638632      32.25723128        4       0.00428657       0.00000000       0.00000000      -0.02809131
Pd      17.87919496       7.14638632      32.25723128        4       0.00428657      -0.00000000       0.00000000      -0.02809131
Pd      20.62984034       7.14638632      32.25723128        4       0.00428657      -0.00000000      -0.00000000      -0.02809131
Pd      23.38048572       7.14638632      32.25723128        4       0.00428657       0.00000000      -0.00000000      -0.02809131
Pd      26.13113110       7.14638632      32.25723128        4       0.00428657      -0.00000000      -0.00000000      -0.02809131
Pd      -0.00000000       9.52851510      32.25723128        4       0.00428657       0.00000000      -0.00000000      -0.02809131
Pd       2.75064538       9.52851510      32.25723128        4       0.00428657      -0.00000000      -0.00000000      -0.02809131
Pd       5.50129076       9.52851510      32.25723128        4       0.00428657       0.00000000      -0.00000000      -0.02809131
Pd       8.25193614       9.52851510      32.25723128        4       0.00428657       0.00000000       0.00000000      -0.02809131
Pd      11.00258152       9.52851510      32.25723128        4       0.00428657      -0.00000000       0.00000000      -0.02809131
Pd      13.75322689       9.52851510      32.25723128        4       0.00428657       0.00000000      -0.00000000      -0.02809131
Pd      16.50387227       9.52851510      32.25723128        4       0.00428657      -0.00000000      -0.00000000      -0.02809131
Pd      19.25451765       9.52851510      32.25723128        4       0.00428657      -0.00000000      -0.00000000      -0.02809131
Pd      22.00516303       9.52851510      32.25723128        4       0.00428657      -0.00000000      -0.00000000      -0.02809131
Pd      24.75580841       9.52851510      32.25723128        4       0.00428657       0.00000000       0.00000000      -0.02809131
Pd       1.37532269      11.91064387      32.25723128        4       0.00428657      -0.00000000       0.00000000      -0.02809131
Pd       4.12596807      11.91064387      32.25723128        4       0.00428657      -0.00000000       0.00000000      -0.02809131
Pd       6.87661345      11.91064387      32.25723128        4       0.00428657       0.00000000      -0.00000000      -0.02809131
Pd       9.62725883      11.91064387      32.25723128        4       0.00428657       0.00000000      -0.00000000      -0.02809131
Pd      12.37790420      11.91064387      32.25723128        4       0.00428657       0.00000000      -0.00000000      -0.02809131
Pd      15.12854958      11.91064387      32.25723128        4       0.00428657       0.00000000      -0.00000000      -0.02809131
Pd      17.87919496      11.91064387      32.25723128        4       0.00428657      -0.00000000      -0.00000000      -0.02809131
Pd      20.62984034      11.91064387      32.25723128        4       0.00428657       0.00000000      -0.00000000      -0.02809131
Pd      23.38048572      11.91064387      32.25723128        4       0.00428657      -0.00000000      -0.00000000      -0.02809131
Pd      26.13113110      11.91064387      32.25723128        4       0.00428657      -0.00000000      -0.00000000      -0.02809131
Pd       0.00000000      14.29277265      32.25723128        4       0.00428657      -0.00000000       0.00000000      -0.02809131
Pd       2.75064538      14.29277265      32.25723128        4       0.00428657       0.00000000      -0.00000000      -0.02809131
Pd       5.50129076      14.29277265      32.25723128        4       0.00428657       0.00000000       0.00000000      -0.02809131
Pd       8.25193614      14.29277265      32.25723128        4       0.00428657      -0.00000000       0.00000000      -0.02809131
Pd      11.00258152      14.29277265      32.25723128        4       0.00428657       0.00000000       0.00000000      -0.02809131
Pd      13.75322689      14.29277265      32.25723128        4       0.00428657      -0.00000000       0.00000000      -0.02809131
Pd      16.50387227      14.29277265      32.25723128        4       0.00428657       0.00000000       0.00000000      -0.02809131
Pd      19.25451765      14.29277265      32.25723128        4       0.00428657       0.00000000       0.00000000      -0.02809131
Pd      22.00516303      14.29277265      32.25723128        4       0.00428657       0.00000000       0.00000000      -0.02809131
Pd      24.75580841      14.29277265      32.25723128        4       0.00428657       0.00000000       0.00000000      -0.02809131
Pd       1.37532269      16.67490142      32.25723128        4       0.00428657       0.00000000       0.00000000      -0.02809131
Pd       4.12596807      16.67490142      32.25723128        4       0.00428657       0.00000000      -0.00000000      -0.02809131
Pd       6.87661345      16.67490142      32.25723128        4       0.00428657      -0.00000000      -0.00000000      -0.02809131
Pd       9.62725883      16.67490142      32.25723128        4       0.00428657       0.00000000      -0.00000000      -0.02809131
Pd      12.37790420      16.67490142      32.25723128        4       0.00428657       0.00000000       0.00000000      -0.02809131
Pd      15.12854958      16.67490142      32.25723128        4       0.00428657       0.00000000      -0.00000000      -0.02809131
Pd      17.87919496      16.67490142      32.25723128        4       0.00428657      -0.00000000      -0.00000000      -0.02809131
Pd      20.62984034      16.67490142      32.25723128        4       0.00428657       0.00000000       0.00000000      -0.02809131
Pd      23.38048572      16.67490142      32.25723128        4       0.00428657      -0.00000000      -0.00000000      -0.02809131
Pd      26.13113110      16.67490142      32.25723128        4       0.00428657      -0.00000000      -0.00000000      -0.02809131
Pd       0.00000000      19.05703020      32.25723128        4       0.00428657      -0.00000000       0.00000000      -0.02809131
Pd       2.75064538      19.05703020      32.25723128        4       0.00428657       0.00000000       0.00000000      -0.02809131
Pd       5.50129076      19.05703020      32.25723128        4       0.00428657      -0.00000000      -0.00000000      -0.02809131
Pd       8.25193614      19.05703020      32.25723128        4       0.00428657       0.00000000      -0.00000000      -0.02809131
Pd      11.00258152      19.05703020      32.25723128        4       0.00428657      -0.00000000      -0.00000000      -0.02809131
Pd      13.75322689      19.05703020      32.25723128        4       0.00428657       0.00000000      -0.00000000      -0.02809131
Pd      16.50387227      19.05703020      32.25723128        4       0.00428657       0.00000000      -0.00000000      -0.02809131
Pd      19.25451765      19.05703020      32.25723128        4       0.00428657       0.00000000      -0.00000000      -0.02809131
Pd      22.00516303      19.05703020      32.25723128        4       0.00428657      -0.00000000      -0.00000000      -0.02809131
Pd      24.75580841      19.05703020      32.25723128        4       0.00428657       0.00000000      -0.00000000      -0.02809131
Pd       1.37532269      21.43915897      32.25723128        4       0.00428657      -0.00000000      -0.00000000      -0.02809131
Pd       4.12596807      21.43915897      32.25723128        4       0.00428657       0.00000000       0.00000000      -0.02809131
Pd       6.87661345      21.43915897      32.25723128        4       0.00428657      -0.00000000       0.00000000      -0.02809131
Pd       9.62725883      21.43915897      32.25723128        4       0.00428657       0.00000000       0.00000000      -0.02809131
Pd      12.37790420      21.43915897      32.25723128        4       0.00428657      -0.00000000       0.00000000      -0.02809131
Pd      15.12854958      21.43915897      32.25723128        4       0.00428657       0.00000000       0.00000000      -0.02809131
Pd      17.87919496      21.43915897      32.25723128        4       0.00428657      -0.00000000       0.00000000      -0.02809131
Pd      20.62984034      21.43915897      32.25723128        4       0.00428657       0.00000000       0.00000000      -0.02809131
Pd      23.38048572      21.43915897      32.25723128        4       0.00428657       0.00000000       0.00000000      -0.02809131
Pd      26.13113110      21.43915897      32.25723128        4       0.00428657      -0.00000000       0.00000000      -0.02809131
Pd       1.37532269       0.79404292      34.49178509        3      -0.00058111      -0.00000000       0.00000000       0.00000000
Pd       4.12596807       0.79404292      34.49178509        3      -0.00058111       0.00000000      -0.00000000       0.00000000
Pd       6.87661345       0.79404292      34.49178509        3      -0.00058111       0.00000000      -0.00000000      -0.00000000
Pd       9.62725883       0.79404292      34.49178509        3      -0.00058111      -0.00000000      -0.00000000      -0.00000000
Pd      12.37790420       0.79404292      34.49178509        3      -0.00058111       0.00000000      -0.00000000      -0.00000000
Pd      15.12854958       0.79404292      34.49178509        3      -0.00058111      -0.00000000      -0.00000000      -0.00000000
Pd      17.87919496       0.79404292      34.49178509        3      -0.00058111      -0.00000000      -0.00000000      -0.00000000
Pd      20.62984034       0.79404292      34.49178509        3      -0.00058111       0.00000000      -0.00000000      -0.00000000
Pd      23.38048572       0.79404292      34.49178509        3      -0.00058111       0.00000000       0.00000000      -0.00000000
Pd      26.13113110       0.79404292      34.49178509        3      -0.00058111       0.00000000      -0.00000000      -0.00000000
Pd       0.00000000       3.17617170      34.49178509        3      -0.00058111      -0.00000000      -0.00000000      -0.00000000
Pd       2.75064538       3.17617170      34.49178509        3      -0.00058111       0.00000000       0.00000000      -0.00000000
Pd       5.50129076       3.17617170      34.49178509        3      -0.00058111       0.00000000       0.00000000      -0.00000000
Pd       8.25193614       3.17617170      34.49178509        3      -0.00058111      -0.00000000      -0.00000000      -0.00000000
Pd      11.00258152       3.17617170      34.49178509        3      -0.00058111      -0.00000000       0.00000000      -0.00000000
Pd      13.75322689       3.17617170      34.49178509        3      -0.00058111       0.00000000       0.00000000      -0.00000000
Pd      16.50387227       3.17617170      34.49178509        3      -0.00058111      -0.00000000       0.00000000      -0.00000000
Pd      19.25451765       3.17617170      34.49178509        3      -0.00058111      -0.00000000       0.00000000      -0.00000000
Pd      22.00516303       3.17617170      34.49178509        3      -0.00058111       0.00000000       0.00000000      -0.00000000
Pd      24.75580841       3.17617170      34.49178509        3      -0.00058111      -0.00000000      -0.00000000      -0.00000000
Pd       1.37532269       5.55830047      34.49178509        3      -0.00058111       0.00000000      -0.00000000      -0.00000000
Pd       4.12596807       5.55830047      34.49178509        3      -0.00058111      -0.00000000       0.00000000      -0.00000000
Pd       6.87661345       5.55830047      34.49178509        3      -0.00058111      -0.00000000       0.00000000      -0.00000000
Pd       9.62725883       5.55830047      34.49178509        3      -0.00058111      -0.00000000      -0.00000000      -0.00000000
Pd      12.37790420       5.55830047      34.49178509        3      -0.00058111       0.00000000      -0.00000000      -0.00000000
Pd      15.12854958       5.55830047      34.49178509        3      -0.00058111       0.00000000      -0.00000000      -0.00000000
Pd      17.87919496       5.55830047      34.49178509        3      -0.00058111      -0.00000000      -0.00000000      -0.00000000
Pd      20.62984034       5.55830047      34.49178509        3      -0.00058111       0.00000000      -0.00000000      -0.00000000
Pd      23.38048572       5.55830047      34.49178509        3      -0.00058111      -0.00000000      -0.00000000      -0.00000000
Pd      26.13113110       5.55830047      34.49178509        3      -0.00058111      -0.00000000      -0.00000000      -0.00000000
Pd       0.00000000       7.94042925      34.49178509        3      -0.00058111      -0.00000000       0.00000000      -0.00000000
Pd       2.75064538       7.94042925      34.49178509        3      -0.00058111      -0.00000000      -0.00000000      -0.00000000
Pd       5.50129076       7.94042925      34.49178509        3      -0.00058111      -0.00000000      -0.00000000       0.00000000
Pd       8.25193614       7.94042925      34.49178509        3      -0.00058111       0.00000000       0.00000000      -0.00000000
Pd      11.00258152       7.94042925      34.49178509        3      -0.00058111      -0.00000000       0.00000000      -0.00000000
Pd      13.75322689       7.94042925      34.49178509        3      -0.00058111      -0.00000000       0.00000000      -0.00000000
Pd      16.50387227       7.94042925      34.49178509        3      -0.00058111      -0.00000000      -0.00000000      -0.00000000
Pd      19.25451765       7.94042925      34.49178509        3      -0.00058111      -0.00000000      -0.00000000      -0.00000000
Pd      22.00516303       7.94042925      34.49178509        3      -0.00058111       0.00000000      -0.00000000      -0.00000000
Pd      24.75580841       7.94042925      34.49178509        3      -0.00058111      -0.00000000       0.00000000      -0.00000000
Pd       1.37532269      10.32255802      34.49178509        3      -0.00058111       0.00000000       0.00000000      -0.00000000
Pd       4.12596807      10.32255802      34.49178509        3      -0.00058111      -0.00000000      -0.00000000      -0.00000000
Pd       6.87661345      10.32255802      34.49178509        3      -0.00058111       0.00000000      -0.00000000      -0.00000000
Pd       9.62725883      10.32255802      34.49178509        3      -0.00058111       0.00000000      -0.00000000      -0.00000000
Pd      12.37790420      10.32255802      34.49178509        3      -0.00058111       0.00000000      -0.00000000      -0.00000000
Pd      15.12854958      10.32255802      34.49178509        3      -0.00058111       0.00000000      -0.00000000      -0.00000000
Pd      17.87919496      10.32255802      34.49178509        3      -0.00058111      -0.00000000      -0.00000000      -0.00000000
Pd      20.62984034      10.32255802      34.49178509        3      -0.00058111       0.00000000       0.00000000      -0.00000000
Pd      23.38048572      10.32255802      34.49178509        3      -0.00058111      -0.00000000       0.00000000      -0.00000000
Pd      26.13113110      10.32255802      34.49178509        3      -0.00058111       0.00000000      -0.00000000      -0.00000000
Pd       0.00000000      12.70468680      34.49178509        3      -0.00058111      -0.00000000       0.00000000      -0.00000000
Pd       2.75064538      12.70468680      34.49178509        3      -0.00058111       0.00000000      -0.00000000      -0.00000000
Pd       5.50129076      12.70468680      34.49178509        3      -0.00058111      -0.00000000      -0.00000000      -0.00000000
Pd       8.25193614      12.70468680      34.49178509        3      -0.00058111       0.00000000      -0.00000000      -0.00000000
Pd      11.00258152      12.70468680      34.49178509        3      -0.00058111       0.00000000      -0.00000000      -0.00000000
Pd      13.75322689      12.70468680      34.49178509        3      -0.00058111      -0.00000000       0.00000000      -0.00000000
Pd      16.50387227      12.70468680      34.49178509        3      -0.00058111      -0.00000000       0.00000000      -0.00000000
Pd      19.25451765      12.70468680      34.49178509        3      -0.00058111       0.00000000      -0.00000000      -0.00000000
Pd      22.00516303      12.70468680      34.49178509        3      -0.00058111       0.00000000      -0.00000000      -0.00000000
Pd      24.75580841      12.70468680      34.49178509        3      -0.00058111       0.00000000       0.00000000      -0.00000000
Pd       1.37532269      15.08681557      34.49178509        3      -0.00058111      -0.00000000       0.00000000      -0.00000000
Pd       4.12596807      15.08681557      34.49178509        3      -0.00058111      -0.00000000      -0.00000000      -0.00000000
Pd       6.87661345      15.08681557      34.49178509        3      -0.00058111       0.00000000       0.00000000      -0.00000000
Pd       9.62725883      15.08681557      34.49178509        3      -0.00058111      -0.00000000       0.00000000      -0.00000000
Pd      12.37790420      15.08681557      34.49178509        3      -0.00058111       0.00000000      -0.00000000      -0.00000000
Pd      15.12854958      15.08681557      34.49178509        3      -0.00058111       0.00000000      -0.00000000      -0.00000000
Pd      17.87919496      15.08681557      34.49178509        3      -0.00058111      -0.00000000      -0.00000000      -0.00000000
Pd      20.62984034      15.08681557      34.49178509        3      -0.00058111       0.00000000       0.00000000      -0.00000000
Pd      23.38048572      15.08681557      34.49178509        3      -0.00058111      -0.00000000       0.00000000      -0.00000000
Pd      26.13113110      15.08681557      34.49178509        3      -0.00058111       0.00000000      -0.00000000      -0.00000000
Pd       0.00000000      17.46894435      34.49178509        3      -0.00058111       0.00000000       0.00000000      -0.00000000
Pd       2.75064538      17.46894435      34.49178509        3      -0.00058111      -0.00000000       0.00000000      -0.00000000
Pd       5.50129076      17.46894435      34.49178509        3      -0.00058111       0.00000000      -0.00000000      -0.00000000
Pd       8.25193614      17.46894435      34.49178509        3      -0.00058111       0.00000000       0.00000000      -0.00000000
Pd      11.00258152      17.46894435      34.49178509        3      -0.00058111      -0.00000000       0.00000000      -0.00000000
Pd      13.75322689      17.46894435      34.49178509        3      -0.00058111      -0.00000000       0.00000000      -0.00000000
Pd      16.50387227      17.46894435      34.49178509        3      -0.00058111      -0.00000000       0.00000000      -0.00000000
Pd      19.25451765      17.46894435      34.49178509        3      -0.00058111      -0.00000000       0.00000000      -0.00000000
Pd      22.00516303      17.46894435      34.49178509        3      -0.00058111       0.00000000      -0.00000000      -0.00000000
Pd      24.75580841      17.46894435      34.49178509        3      -0.00058111       0.00000000       0.00000000      -0.00000000
Pd       1.37532269      19.85107312      34.49178509        3      -0.00058111      -0.00000000      -0.00000000      -0.00000000
Pd       4.12596807      19.85107312      34.49178509        3      -0.00058111       0.00000000      -0.00000000      -0.00000000
Pd       6.87661345      19.85107312      34.49178509        3      -0.00058111      -0.00000000      -0.00000000      -0.00000000
Pd       9.62725883      19.85107312      34.49178509        3      -0.00058111       0.00000000      -0.00000000      -0.00000000
Pd      12.37790420      19.85107312      34.49178509        3      -0.00058111       0.00000000      -0.00000000      -0.00000000
Pd      15.12854958      19.85107312      34.49178509        3      -0.00058111      -0.00000000      -0.00000000      -0.00000000
Pd      17.87919496      19.85107312      34.49178509        3      -0.00058111      -0.00000000      -0.00000000      -0.00000000
Pd      20.62984034      19.85107312      34.49178509        3      -0.00058111      -0.00000000      -0.00000000      -0.00000000
Pd      23.38048572      19.85107312      34.49178509        3      -0.00058111       0.00000000      -0.00000000      -0.00000000
Pd      26.13113110      19.85107312      34.49178509        3      -0.00058111       0.00000000      -0.00000000      -0.00000000
Pd      -0.00000000      22.23320190      34.49178509        3      -0.00058111       0.00000000       0.00000000      -0.00000000
Pd       2.75064538      22.23320190      34.49178509        3      -0.00058111      -0.00000000       0.00000000      -0.00000000
Pd       5.50129076      22.23320190      34.49178509        3      -0.00058111      -0.00000000       0.00000000      -0.00000000
Pd       8.25193614      22.23320190      34.49178509        3      -0.00058111      -0.00000000       0.00000000      -0.00000000
Pd      11.00258152      22.23320190      34.49178509        3      -0.00058111       0.00000000       0.00000000      -0.00000000
Pd      13.75322689      22.23320190      34.49178509        3      -0.00058111      -0.00000000       0.00000000      -0.00000000
Pd      16.50387227      22.23320190      34.49178509        3      -0.00058111       0.00000000       0.00000000      -0.00000000
Pd      19.25451765      22.23320190      34.49178509        3      -0.00058111      -0.00000000       0.00000000      -0.00000000
Pd      22.00516303      22.23320190      34.49178509        3      -0.00058111      -0.00000000       0.00000000      -0.00000000
Pd      24.75580841      22.23320190      34.49178509        3      -0.00058111       0.00000000       0.00000000      -0.00000000
Pd      -0.00000000       1.58808585      36.72633890        2       0.00428657       0.00000000      -0.00000000       0.02809131
Pd       2.75064538       1.58808585      36.72633890        2       0.00428657      -0.00000000      -0.00000000       0.02809131
Pd       5.50129076       1.58808585      36.72633890        2       0.00428657      -0.00000000       0.00000000       0.02809131
Pd       8.25193614       1.58808585      36.72633890        2       0.00428657      -0.00000000       0.00000000       0.02809131
Pd      11.00258152       1.58808585      36.72633890        2       0.00428657       0.00000000      -0.00000000       0.02809131
Pd      13.75322689       1.58808585      36.72633890        2       0.00428657      -0.00000000       0.00000000       0.02809131
Pd      16.50387227       1.58808585      36.72633890        2       0.00428657      -0.00000000       0.00000000       0.02809131
Pd      19.25451765       1.58808585      36.72633890        2       0.00428657      -0.00000000       0.00000000       0.02809131
Pd      22.00516303       1.58808585      36.72633890        2       0.00428657       0.00000000       0.00000000       0.02809131
Pd      24.75580841       1.58808585      36.72633890        2       0.00428657      -0.00000000       0.00000000       0.02809131
Pd       1.37532269       3.97021462      36.72633890        2       0.00428657       0.00000000       0.00000000       0.02809131
Pd       4.12596807       3.97021462      36.72633890        2       0.00428657      -0.00000000       0.00000000       0.02809131
Pd       6.87661345       3.97021462      36.72633890        2       0.00428657       0.00000000      -0.00000000       0.02809131
Pd       9.62725883       3.97021462      36.72633890        2       0.00428657      -0.00000000      -0.00000000       0.02809131
Pd      12.37790420       3.97021462      36.72633890        2       0.00428657       0.00000000      -0.00000000       0.02809131
Pd      15.12854958       3.97021462      36.72633890        2       0.00428657      -0.00000000      -0.00000000       0.02809131
Pd      17.87919496       3.97021462      36.72633890        2       0.00428657       0.00000000      -0.00000000       0.02809131
Pd      20.62984034       3.97021462      36.72633890        2       0.00428657      -0.00000000       0.00000000       0.02809131
Pd      23.38048572       3.97021462      36.72633890        2       0.00428657       0.00000000       0.00000000       0.02809131
Pd      26.13113110       3.97021462      36.72633890        2       0.00428657      -0.00000000       0.00000000       0.02809131
Pd      -0.00000000       6.35234340      36.72633890        2       0.00428657       0.00000000       0.00000000       0.02809131
Pd       2.75064538       6.35234340      36.72633890        2       0.00428657      -0.00000000      -0.00000000       0.02809131
Pd       5.50129076       6.35234340      36.72633890        2       0.00428657      -0.00000000       0.00000000       0.02809131
Pd       8.25193614       6.35234340      36.72633890        2       0.00428657       0.00000000      -0.00000000       0.02809131
Pd      11.00258152       6.35234340      36.72633890        2       0.00428657      -0.00000000       0.00000000       0.02809131
Pd      13.75322689       6.35234340      36.72633890        2       0.00428657      -0.00000000       0.00000000       0.02809131
Pd      16.50387227       6.35234340      36.72633890        2       0.00428657      -0.00000000       0.00000000       0.02809131
Pd      19.25451765       6.35234340      36.72633890        2       0.00428657       0.00000000      -0.00000000       0.02809131
Pd      22.00516303       6.35234340      36.72633890        2       0.00428657      -0.00000000      -0.00000000       0.02809131
Pd      24.75580841       6.35234340      36.72633890        2       0.00428657       0.00000000      -0.00000000       0.02809131
Pd       1.37532269       8.73447217      36.72633890        2       0.00428657      -0.00000000      -0.00000000       0.02809131
Pd       4.12596807       8.73447217      36.72633890        2       0.00428657       0.00000000      -0.00000000       0.02809131
Pd       6.87661345       8.73447217      36.72633890        2       0.00428657      -0.00000000       0.00000000       0.02809131
Pd       9.62725883       8.73447217      36.72633890        2       0.00428657      -0.00000000       0.00000000       0.02809131
Pd      12.37790420       8.73447217      36.72633890        2       0.00428657      -0.00000000       0.00000000       0.02809131
Pd      15.12854958       8.73447217      36.72633890        2       0.00428657       0.00000000       0.00000000       0.02809131
Pd      17.87919496       8.73447217      36.72633890        2       0.00428657      -0.00000000       0.00000000       0.02809131
Pd      20.62984034       8.73447217      36.72633890        2       0.00428657       0.00000000       0.00000000       0.02809131
Pd      23.38048572       8.73447217      36.72633890        2       0.00428657       0.00000000       0.00000000       0.02809131
Pd      26.13113110       8.73447217      36.72633890        2       0.00428657       0.00000000       0.00000000       0.02809131
Pd       0.00000000      11.11660095      36.72633890        2       0.00428657      -0.00000000       0.00000000       0.02809131
Pd       2.75064538      11.11660095      36.72633890        2       0.00428657      -0.00000000       0.00000000       0.02809131
Pd       5.50129076      11.11660095      36.72633890        2       0.00428657      -0.00000000       0.00000000       0.02809131
Pd       8.25193614      11.11660095      36.72633890        2       0.00428657       0.00000000       0.00000000       0.02809131
Pd      11.00258152      11.11660095      36.72633890        2       0.00428657       0.00000000       0.00000000       0.02809131
Pd      13.75322689      11.11660095      36.72633890        2       0.00428657      -0.00000000       0.00000000       0.02809131
Pd      16.50387227      11.11660095      36.72633890        2       0.00428657      -0.00000000       0.00000000       0.02809131
Pd      19.25451765      11.11660095      36.72633890        2       0.00428657       0.00000000       0.00000000       0.02809131
Pd      22.00516303      11.11660095      36.72633890        2       0.00428657      -0.00000000       0.00000000       0.02809131
Pd      24.75580841      11.11660095      36.72633890        2       0.00428657       0.00000000       0.00000000       0.02809131
Pd       1.37532269      13.49872972      36.72633890        2       0.00428657      -0.00000000      -0.00000000       0.02809131
Pd       4.12596807      13.49872972      36.72633890        2       0.00428657       0.00000000      -0.00000000       0.02809131
Pd       6.87661345      13.49872972      36.72633890        2       0.00428657       0.00000000      -0.00000000       0.02809131
Pd       9.62725883      13.49872972      36.72633890        2       0.00428657      -0.00000000       0.00000000       0.02809131
Pd      12.37790420      13.49872972      36.72633890        2       0.00428657       0.00000000       0.00000000       0.02809131
Pd      15.12854958      13.49872972      36.72633890        2       0.00428657       0.00000000       0.00000000       0.02809131
Pd      17.87919496      13.49872972      36.72633890        2       0.00428657      -0.00000000       0.00000000       0.02809131
Pd      20.62984034      13.49872972      36.72633890        2       0.00428657      -0.00000000       0.00000000       0.02809131
Pd      23.38048572      13.49872972      36.72633890        2       0.00428657       0.00000000       0.00000000       0.02809131
Pd      26.13113110      13.49872972      36.72633890        2       0.00428657       0.00000000       0.00000000       0.02809131
Pd      -0.00000000      15.88085850      36.72633890        2       0.00428657       0.00000000       0.00000000       0.02809131
Pd       2.75064538      15.88085850      36.72633890        2       0.00428657      -0.00000000       0.00000000       0.02809131
Pd       5.50129076      15.88085850      36.72633890        2       0.00428657       0.00000000       0.00000000       0.02809131
Pd       8.25193614      15.88085850      36.72633890        2       0.00428657       0.00000000       0.00000000       0.02809131
Pd      11.00258152      15.88085850      36.72633890        2       0.00428657       0.00000000       0.00000000       0.02809131
Pd      13.75322689      15.88085850      36.72633890        2       0.00428657       0.00000000       0.00000000       0.02809131
Pd      16.50387227      15.88085850      36.72633890        2       0.00428657      -0.00000000      -0.00000000       0.02809131
Pd      19.25451765      15.88085850      36.72633890        2       0.00428657      -0.00000000       0.00000000       0.02809131
Pd      22.00516303      15.88085850      36.72633890        2       0.00428657       0.00000000       0.00000000       0.02809131
Pd      24.75580841      15.88085850      36.72633890        2       0.00428657      -0.00000000       0.00000000       0.02809131
Pd       1.37532269      18.26298727      36.72633890        2       0.00428657       0.00000000      -0.00000000       0.02809131
Pd       4.12596807      18.26298727      36.72633890        2       0.00428657       0.00000000       0.00000000       0.02809131
Pd       6.87661345      18.26298727      36.72633890        2       0.00428657      -0.00000000      -0.00000000       0.02809131
Pd       9.62725883      18.26298727      36.72633890        2       0.00428657      -0.00000000      -0.00000000       0.02809131
Pd      12.37790420      18.26298727      36.72633890        2       0.00428657       0.00000000      -0.00000000       0.02809131
Pd      15.12854958      18.26298727      36.72633890        2       0.00428657      -0.00000000      -0.00000000       0.02809131
Pd      17.87919496      18.26298727      36.72633890        2       0.00428657      -0.00000000      -0.00000000       0.02809131
Pd      20.62984034      18.26298727      36.72633890        2       0.00428657      -0.00000000      -0.00000000       0.02809131
Pd      23.38048572      18.26298727      36.72633890        2       0.00428657       0.00000000      -0.00000000       0.02809131
Pd      26.13113110      18.26298727      36.72633890        2       0.00428657       0.00000000      -0.00000000       0.02809131
Pd      -0.00000000      20.64511605      36.72633890        2       0.00428657       0.00000000      -0.00000000       0.02809131
Pd       2.75064538      20.64511605      36.72633890        2       0.00428657      -0.00000000       0.00000000       0.02809131
Pd       5.50129076      20.64511605      36.72633890        2       0.00428657       0.00000000       0.00000000       0.02809131
Pd       8.25193614      20.64511605      36.72633890        2       0.00428657      -0.00000000       0.00000000       0.02809131
Pd      11.00258152      20.64511605      36.72633890        2       0.00428657       0.00000000       0.00000000       0.02809131
Pd      13.75322689      20.64511605      36.72633890        2       0.00428657       0.00000000       0.00000000       0.02809131
Pd      16.50387227      20.64511605      36.72633890        2       0.00428657      -0.00000000       0.00000000       0.02809131
Pd      19.25451765      20.64511605      36.72633890        2       0.00428657       0.00000000       0.00000000       0.02809131
Pd      22.00516303      20.64511605      36.72633890        2       0.00428657       0.00000000       0.00000000       0.02809131
Pd      24.75580841      20.64511605      36.72633890        2       0.00428657      -0.00000000       0.00000000       0.02809131
Pd       1.37532269      23.02724482      36.72633890        2       0.00428657      -0.00000000      -0.00000000       0.02809131
Pd       4.12596807      23.02724482      36.72633890        2       0.00428657       0.00000000       0.00000000       0.02809131
Pd       6.87661345      23.02724482      36.72633890        2       0.00428657       0.00000000      -0.00000000       0.02809131
Pd       9.62725883      23.02724482      36.72633890        2       0.00428657      -0.00000000      -0.00000000       0.02809131
Pd      12.37790420      23.02724482      36.72633890        2       0.00428657       0.00000000      -0.00000000       0.02809131
Pd      15.12854958      23.02724482      36.72633890        2       0.00428657       0.00000000      -0.00000000       0.02809131
Pd      17.87919496      23.02724482      36.72633890        2       0.00428657      -0.00000000       0.00000000       0.02809131
Pd      20.62984034      23.02724482      36.72633890        2       0.00428657       0.00000000      -0.00000000       0.02809131
Pd      23.38048572      23.02724482      36.72633890        2       0.00428657      -0.00000000      -0.00000000       0.02809131
Pd      26.13113110      23.02724482      36.72633890        2       0.00428657       0.00000000       0.00000000       0.02809131
Pd       0.00000000      -0.00000000      38.92246316        1       0.26981147      -0.00000000      -0.00000000      -0.02089927
Pd       2.75064538      -0.00000000      38.92246316        1       0.26981147      -0.00000000      -0.00000000      -0.02089927
Pd       5.50129076       0.00000000      38.92246316        1       0.26981147       0.00000000      -0.00000000      -0.02089927
Pd       8.25193614       0.00000000      38.92246316        1       0.26981147       0.00000000      -0.00000000      -0.02089927
Pd      11.00258152       0.00000000      38.92246316        1       0.26981147      -0.00000000      -0.00000000      -0.02089927
Pd      13.75322689      -0.00000000      38.92246316        1       0.26981147       0.00000000       0.00000000      -0.02089927
Pd      16.50387227      -0.00000000      38.92246316        1       0.26981147      -0.00000000       0.00000000      -0.02089927
Pd      19.25451765       0.00000000      38.92246316        1       0.26981147       0.00000000      -0.00000000      -0.02089927
Pd      22.00516303       0.00000000      38.92246316        1       0.26981147      -0.00000000      -0.00000000      -0.02089927
Pd      24.75580841       0.00000000      38.92246316        1       0.26981147      -0.00000000      -0.00000000      -0.02089927
Pd       1.37532269       2.38212877      38.92246316        1       0.26981147       0.00000000      -0.00000000      -0.02089927
Pd       4.12596807       2.38212877      38.92246316        1       0.26981147       0.00000000       0.00000000      -0.02089927
Pd       6.87661345       2.38212877      38.92246316        1       0.26981147       0.00000000       0.00000000      -0.02089927
Pd       9.62725883       2.38212877      38.92246316        1       0.26981147      -0.00000000       0.00000000      -0.02089927
Pd      12.37790420       2.38212877      38.92246316        1       0.26981147       0.00000000      -0.00000000      -0.02089927
Pd      15.12854958       2.38212877      38.92246316        1       0.26981147       0.00000000      -0.00000000      -0.02089927
Pd      17.87919496       2.38212877      38.92246316        1       0.26981147      -0.00000000       0.00000000      -0.02089927
Pd      20.62984034       2.38212877      38.92246316        1       0.26981147      -0.00000000       0.00000000      -0.02089927
Pd      23.38048572       2.38212877      38.92246316        1       0.26981147      -0.00000000       0.00000000      -0.02089927
Pd      26.13113110       2.38212877      38.92246316        1       0.26981147      -0.00000000       0.00000000      -0.02089927
Pd      -0.00000000       4.76425755      38.92246316        1       0.26981147      -0.00000000      -0.00000000      -0.02089927
Pd       2.75064538       4.76425755      38.92246316        1       0.26981147      -0.00000000       0.00000000      -0.02089927
Pd       5.50129076       4.76425755      38.92246316        1       0.26981147       0.00000000      -0.00000000      -0.02089927
Pd       8.25193614       4.76425755      38.92246316        1       0.26981147       0.00000000      -0.00000000      -0.02089927
Pd      11.00258152       4.76425755      38.92246316        1       0.26981147      -0.00000000       0.00000000      -0.02089927
Pd      13.75322689       4.76425755      38.92246316        1       0.26981147      -0.00000000       0.00000000      -0.02089927
Pd      16.50387227       4.76425755      38.92246316        1       0.26981147       0.00000000      -0.00000000      -0.02089927
Pd      19.25451765       4.76425755      38.92246316        1       0.26981147      -0.00000000      -0.00000000      -0.02089927
Pd      22.00516303       4.76425755      38.92246316        1       0.26981147       0.00000000      -0.00000000      -0.02089927
Pd      24.75580841       4.76425755      38.92246316        1       0.26981147      -0.00000000       0.00000000      -0.02089927
Pd       1.37532269       7.14638632      38.92246316        1       0.26981147       0.00000000      -0.00000000      -0.02089927
Pd       4.12596807       7.14638632      38.92246316        1       0.26981147       0.00000000      -0.00000000      -0.02089927
Pd       6.87661345       7.14638632      38.92246316        1       0.26981147      -0.00000000      -0.00000000      -0.02089927
Pd       9.62725883       7.14638632      38.92246316        1       0.26981147       0.00000000      -0.00000000      -0.02089927
Pd      12.37790420       7.14638632      38.92246316        1       0.26981147       0.00000000      -0.00000000      -0.02089927
Pd      15.12854958       7.14638632      38.92246316        1       0.26981147      -0.00000000      -0.00000000      -0.02089927
Pd      17.87919496       7.14638632      38.92246316        1       0.26981147       0.00000000      -0.00000000      -0.02089927
Pd      20.62984034       7.14638632      38.92246316        1       0.26981147      -0.00000000       0.00000000      -0.02089927
Pd      23.38048572       7.14638632      38.92246316        1       0.26981147       0.00000000      -0.00000000      -0.02089927
Pd      26.13113110       7.14638632      38.92246316        1       0.26981147      -0.00000000      -0.00000000      -0.02089927
Pd       0.00000000       9.52851510      38.92246316        1       0.26981147      -0.00000000       0.00000000      -0.02089927
Pd       2.75064538       9.52851510      38.92246316        1       0.26981147      -0.00000000       0.00000000      -0.02089927
Pd       5.50129076       9.52851510      38.92246316        1       0.26981147       0.00000000      -0.00000000      -0.02089927
Pd       8.25193614       9.52851510      38.92246316        1       0.26981147       0.00000000      -0.00000000      -0.02089927
Pd      11.00258152       9.52851510      38.92246316        1       0.26981147       0.00000000      -0.00000000      -0.02089927
Pd      13.75322689       9.52851510      38.92246316        1       0.26981147      -0.00000000       0.00000000      -0.02089927
Pd      16.50387227       9.52851510      38.92246316        1       0.26981147      -0.00000000       0.00000000      -0.02089927
Pd      19.25451765       9.52851510      38.92246316        1       0.26981147       0.00000000      -0.00000000      -0.02089927
Pd      22.00516303       9.52851510      38.92246316        1       0.26981147      -0.00000000      -0.00000000      -0.02089927
Pd      24.75580841       9.52851510      38.92246316        1       0.26981147       0.00000000      -0.00000000      -0.02089927
Pd       1.37532269      11.91064387      38.92246316        1       0.26981147       0.00000000      -0.00000000      -0.02089927
Pd       4.12596807      11.91064387      38.92246316        1       0.26981147      -0.00000000      -0.00000000      -0.02089927
Pd       6.87661345      11.91064387      38.92246316        1       0.26981147      -0.00000000       0.00000000      -0.02089927
Pd       9.62725883      11.91064387      38.92246316        1       0.26981147      -0.00000000      -0.00000000      -0.02089927
Pd      12.37790420      11.91064387      38.92246316        1       0.26981147       0.00000000       0.00000000      -0.02089927
Pd      15.12854958      11.91064387      38.92246316        1       0.26981147       0.00000000      -0.00000000      -0.02089927
Pd      17.87919496      11.91064387      38.92246316        1       0.26981147      -0.00000000      -0.00000000      -0.02089927
Pd      20.62984034      11.91064387      38.92246316        1       0.26981147      -0.00000000      -0.00000000      -0.02089927
Pd      23.38048572      11.91064387      38.92246316        1       0.26981147       0.00000000      -0.00000000      -0.02089927
Pd      26.13113110      11.91064387      38.92246316        1       0.26981147      -0.00000000      -0.00000000      -0.02089927
Pd      -0.00000000      14.29277265      38.92246316        1       0.26981147       0.00000000       0.00000000      -0.02089927
Pd       2.75064538      14.29277265      38.92246316        1       0.26981147      -0.00000000       0.00000000      -0.02089927
Pd       5.50129076      14.29277265      38.92246316        1       0.26981147       0.00000000      -0.00000000      -0.02089927
Pd       8.25193614      14.29277265      38.92246316        1       0.26981147      -0.00000000       0.00000000      -0.02089927
Pd      11.00258152      14.29277265      38.92246316        1       0.26981147       0.00000000       0.00000000      -0.02089927
Pd      13.75322689      14.29277265      38.92246316        1       0.26981147      -0.00000000       0.00000000      -0.02089927
Pd      16.50387227      14.29277265      38.92246316        1       0.26981147       0.00000000       0.00000000      -0.02089927
Pd      19.25451765      14.29277265      38.92246316        1       0.26981147      -0.00000000       0.00000000      -0.02089927
Pd      22.00516303      14.29277265      38.92246316        1       0.26981147       0.00000000       0.00000000      -0.02089927
Pd      24.75580841      14.29277265      38.92246316        1       0.26981147       0.00000000       0.00000000      -0.02089927
Pd       1.37532269      16.67490142      38.92246316        1       0.26981147       0.00000000      -0.00000000      -0.02089927
Pd       4.12596807      16.67490142      38.92246316        1       0.26981147       0.00000000      -0.00000000      -0.02089927
Pd       6.87661345      16.67490142      38.92246316        1       0.26981147       0.00000000      -0.00000000      -0.02089927
Pd       9.62725883      16.67490142      38.92246316        1       0.26981147      -0.00000000      -0.00000000      -0.02089927
Pd      12.37790420      16.67490142      38.92246316        1       0.26981147       0.00000000      -0.00000000      -0.02089927
Pd      15.12854958      16.67490142      38.92246316        1       0.26981147      -0.00000000      -0.00000000      -0.02089927
Pd      17.87919496      16.67490142      38.92246316        1       0.26981147      -0.00000000      -0.00000000      -0.02089927
Pd      20.62984034      16.67490142      38.92246316        1       0.26981147       0.00000000      -0.00000000      -0.02089927
Pd      23.38048572      16.67490142      38.92246316        1       0.26981147       0.00000000      -0.00000000      -0.02089927
Pd      26.13113110      16.67490142      38.92246316        1       0.26981147       0.00000000      -0.00000000      -0.02089927
Pd       0.00000000      19.05703020      38.92246316        1       0.26981147       0.00000000      -0.00000000      -0.02089927
Pd       2.75064538      19.05703020      38.92246316        1       0.26981147      -0.00000000       0.00000000      -0.02089927
Pd       5.50129076      19.05703020      38.92246316        1       0.26981147      -0.00000000      -0.00000000      -0.02089927
Pd       8.25193614      19.05703020      38.92246316        1       0.26981147       0.00000000      -0.00000000      -0.02089927
Pd      11.00258152      19.05703020      38.92246316        1       0.26981147      -0.00000000      -0.00000000      -0.02089927
Pd      13.75322689      19.05703020      38.92246316        1       0.26981147       0.00000000      -0.00000000      -0.02089927
Pd      16.50387227      19.05703020      38.92246316        1       0.26981147      -0.00000000      -0.00000000      -0.02089927
Pd      19.25451765      19.05703020      38.92246316        1       0.26981147      -0.00000000      -0.00000000      -0.02089927
Pd      22.00516303      19.05703020      38.92246316        1       0.26981147       0.00000000      -0.00000000      -0.02089927
Pd      24.75580841      19.05703020      38.92246316        1       0.26981147       0.00000000      -0.00000000      -0.02089927
Pd       1.37532269      21.43915897      38.92246316        1       0.26981147       0.00000000      -0.00000000      -0.02089927
Pd       4.12596807      21.43915897      38.92246316        1       0.26981147       0.00000000       0.00000000      -0.02089927
Pd       6.87661345      21.43915897      38.92246316        1       0.26981147      -0.00000000       0.00000000      -0.02089927
Pd       9.62725883      21.43915897      38.92246316        1       0.26981147      -0.00000000       0.00000000      -0.02089927
Pd      12.37790420      21.43915897      38.92246316        1       0.26981147       0.00000000       0.00000000      -0.02089927
Pd      15.12854958      21.43915897      38.92246316        1       0.26981147      -0.00000000       0.00000000      -0.02089927
Pd      17.87919496      21.43915897      38.92246316        1       0.26981147      -0.00000000       0.00000000      -0.02089927
Pd      20.62984034      21.43915897      38.92246316        1       0.26981147       0.00000000       0.00000000      -0.02089927
Pd      23.38048572      21.43915897      38.92246316        1       0.26981147      -0.00000000       0.00000000      -0.02089927
Pd      26.13113110      21.43915897      38.92246316        1       0.26981147       0.00000000       0.00000000      -0.02089927
